c User generated cnf file
p cnf 14 32
6 -4 6 0 
8 9 -2 0 
12 7 -12 0 
12 3 -1 0 
7 -14 2 0 
13 2 -9 0 
10 14 -6 0 
13 -2 1 0 
13 9 -11 0 
14 6 -8 0 
14 3 -12 0 
14 -9 11 0 
6 9 -12 0 
6 -9 3 0 
3 -7 13 0 
7 4 -13 0 
5 -5 3 0 
2 5 -3 0 
10 -7 10 0 
3 -12 3 0 
1 -13 7 0 
7 -2 13 0 
12 8 -5 0 
1 -7 3 0 
1 -11 4 0 
1 2 -6 0 
3 2 -11 0 
3 -7 13 0 
8 1 -10 0 
1 -9 8 0 
6 -13 11 0 
3 -8 3 0 
